\* Maximize_Interest *\
Maximize
OBJ: 0.00139726027397 interest_teb_marifetli_hesap_1
 + 0.00139726027397 interest_teb_marifetli_hesap_10
 + 0.00139726027397 interest_teb_marifetli_hesap_2
 + 0.00139726027397 interest_teb_marifetli_hesap_3
 + 0.00139726027397 interest_teb_marifetli_hesap_4
 + 0.00139726027397 interest_teb_marifetli_hesap_5
 + 0.00139726027397 interest_teb_marifetli_hesap_6
 + 0.00139726027397 interest_teb_marifetli_hesap_7
 + 0.00139726027397 interest_teb_marifetli_hesap_8
 + 0.00139726027397 interest_teb_marifetli_hesap_9
Subject To
ExactlyOneRange_teb_marifetli_hesap: range_teb_marifetli_hesap_0
 + range_teb_marifetli_hesap_1 + range_teb_marifetli_hesap_10
 + range_teb_marifetli_hesap_2 + range_teb_marifetli_hesap_3
 + range_teb_marifetli_hesap_4 + range_teb_marifetli_hesap_5
 + range_teb_marifetli_hesap_6 + range_teb_marifetli_hesap_7
 + range_teb_marifetli_hesap_8 + range_teb_marifetli_hesap_9 = 1
Overall_Deposit_Sum: deposit_teb_marifetli_hesap_0
 + deposit_teb_marifetli_hesap_1 + deposit_teb_marifetli_hesap_10
 + deposit_teb_marifetli_hesap_2 + deposit_teb_marifetli_hesap_3
 + deposit_teb_marifetli_hesap_4 + deposit_teb_marifetli_hesap_5
 + deposit_teb_marifetli_hesap_6 + deposit_teb_marifetli_hesap_7
 + deposit_teb_marifetli_hesap_8 + deposit_teb_marifetli_hesap_9 = 3500000
_C1: deposit_teb_marifetli_hesap_0 >= 0
_C10: - deposit_teb_marifetli_hesap_1 + interest_teb_marifetli_hesap_1
 <= -5000
_C11: interest_teb_marifetli_hesap_1 - 44999 range_teb_marifetli_hesap_1 <= 0
_C12: - deposit_teb_marifetli_hesap_1 + interest_teb_marifetli_hesap_1
 - 3500000 range_teb_marifetli_hesap_1 >= -3505000
_C13: deposit_teb_marifetli_hesap_2 - 50000 range_teb_marifetli_hesap_2 >= 0
_C14: deposit_teb_marifetli_hesap_2 - 99999 range_teb_marifetli_hesap_2 <= 0
_C15: deposit_teb_marifetli_hesap_2 - 7500 range_teb_marifetli_hesap_2 >= 0
_C16: - deposit_teb_marifetli_hesap_2 + interest_teb_marifetli_hesap_2
 <= -7500
_C17: interest_teb_marifetli_hesap_2 - 92499 range_teb_marifetli_hesap_2 <= 0
_C18: - deposit_teb_marifetli_hesap_2 + interest_teb_marifetli_hesap_2
 - 3500000 range_teb_marifetli_hesap_2 >= -3507500
_C19: deposit_teb_marifetli_hesap_3 - 100000 range_teb_marifetli_hesap_3 >= 0
_C2: deposit_teb_marifetli_hesap_0 - 2000 range_teb_marifetli_hesap_0 <= 0
_C20: deposit_teb_marifetli_hesap_3 - 249999 range_teb_marifetli_hesap_3 <= 0
_C21: deposit_teb_marifetli_hesap_3 - 15000 range_teb_marifetli_hesap_3 >= 0
_C22: - deposit_teb_marifetli_hesap_3 + interest_teb_marifetli_hesap_3
 <= -15000
_C23: interest_teb_marifetli_hesap_3 - 234999 range_teb_marifetli_hesap_3 <= 0
_C24: - deposit_teb_marifetli_hesap_3 + interest_teb_marifetli_hesap_3
 - 3500000 range_teb_marifetli_hesap_3 >= -3515000
_C25: deposit_teb_marifetli_hesap_4 - 250000 range_teb_marifetli_hesap_4 >= 0
_C26: deposit_teb_marifetli_hesap_4 - 499999 range_teb_marifetli_hesap_4 <= 0
_C27: deposit_teb_marifetli_hesap_4 - 30000 range_teb_marifetli_hesap_4 >= 0
_C28: - deposit_teb_marifetli_hesap_4 + interest_teb_marifetli_hesap_4
 <= -30000
_C29: interest_teb_marifetli_hesap_4 - 469999 range_teb_marifetli_hesap_4 <= 0
_C3: deposit_teb_marifetli_hesap_0 >= 0
_C30: - deposit_teb_marifetli_hesap_4 + interest_teb_marifetli_hesap_4
 - 3500000 range_teb_marifetli_hesap_4 >= -3530000
_C31: deposit_teb_marifetli_hesap_5 - 500000 range_teb_marifetli_hesap_5 >= 0
_C32: deposit_teb_marifetli_hesap_5 - 749999 range_teb_marifetli_hesap_5 <= 0
_C33: deposit_teb_marifetli_hesap_5 - 50000 range_teb_marifetli_hesap_5 >= 0
_C34: - deposit_teb_marifetli_hesap_5 + interest_teb_marifetli_hesap_5
 <= -50000
_C35: interest_teb_marifetli_hesap_5 - 699999 range_teb_marifetli_hesap_5 <= 0
_C36: - deposit_teb_marifetli_hesap_5 + interest_teb_marifetli_hesap_5
 - 3500000 range_teb_marifetli_hesap_5 >= -3550000
_C37: deposit_teb_marifetli_hesap_6 - 750000 range_teb_marifetli_hesap_6 >= 0
_C38: deposit_teb_marifetli_hesap_6 - 999999 range_teb_marifetli_hesap_6 <= 0
_C39: deposit_teb_marifetli_hesap_6 - 50000 range_teb_marifetli_hesap_6 >= 0
_C4: - deposit_teb_marifetli_hesap_0 + interest_teb_marifetli_hesap_0 <= 0
_C40: - deposit_teb_marifetli_hesap_6 + interest_teb_marifetli_hesap_6
 <= -50000
_C41: interest_teb_marifetli_hesap_6 - 949999 range_teb_marifetli_hesap_6 <= 0
_C42: - deposit_teb_marifetli_hesap_6 + interest_teb_marifetli_hesap_6
 - 3500000 range_teb_marifetli_hesap_6 >= -3550000
_C43: deposit_teb_marifetli_hesap_7 - 1000000 range_teb_marifetli_hesap_7 >= 0
_C44: deposit_teb_marifetli_hesap_7 - 1500000 range_teb_marifetli_hesap_7 <= 0
_C45: deposit_teb_marifetli_hesap_7 - 75000 range_teb_marifetli_hesap_7 >= 0
_C46: - deposit_teb_marifetli_hesap_7 + interest_teb_marifetli_hesap_7
 <= -75000
_C47: interest_teb_marifetli_hesap_7 - 1425000 range_teb_marifetli_hesap_7
 <= 0
_C48: - deposit_teb_marifetli_hesap_7 + interest_teb_marifetli_hesap_7
 - 3500000 range_teb_marifetli_hesap_7 >= -3575000
_C49: deposit_teb_marifetli_hesap_8 - 1500001 range_teb_marifetli_hesap_8 >= 0
_C5: interest_teb_marifetli_hesap_0 - 2000 range_teb_marifetli_hesap_0 <= 0
_C50: deposit_teb_marifetli_hesap_8 - 2000000 range_teb_marifetli_hesap_8 <= 0
_C51: deposit_teb_marifetli_hesap_8 - 100000 range_teb_marifetli_hesap_8 >= 0
_C52: - deposit_teb_marifetli_hesap_8 + interest_teb_marifetli_hesap_8
 <= -100000
_C53: interest_teb_marifetli_hesap_8 - 1900000 range_teb_marifetli_hesap_8
 <= 0
_C54: - deposit_teb_marifetli_hesap_8 + interest_teb_marifetli_hesap_8
 - 3500000 range_teb_marifetli_hesap_8 >= -3600000
_C55: deposit_teb_marifetli_hesap_9 - 2000001 range_teb_marifetli_hesap_9 >= 0
_C56: deposit_teb_marifetli_hesap_9 - 3000000 range_teb_marifetli_hesap_9 <= 0
_C57: deposit_teb_marifetli_hesap_9 - 150000 range_teb_marifetli_hesap_9 >= 0
_C58: - deposit_teb_marifetli_hesap_9 + interest_teb_marifetli_hesap_9
 <= -150000
_C59: interest_teb_marifetli_hesap_9 - 2850000 range_teb_marifetli_hesap_9
 <= 0
_C6: - deposit_teb_marifetli_hesap_0 + interest_teb_marifetli_hesap_0
 - 3500000 range_teb_marifetli_hesap_0 >= -3500000
_C60: - deposit_teb_marifetli_hesap_9 + interest_teb_marifetli_hesap_9
 - 3500000 range_teb_marifetli_hesap_9 >= -3650000
_C61: deposit_teb_marifetli_hesap_10 - 3000001 range_teb_marifetli_hesap_10
 >= 0
_C62: deposit_teb_marifetli_hesap_10 - 3500000 range_teb_marifetli_hesap_10
 <= 0
_C63: deposit_teb_marifetli_hesap_10 - 200000 range_teb_marifetli_hesap_10
 >= 0
_C64: - deposit_teb_marifetli_hesap_10 + interest_teb_marifetli_hesap_10
 <= -200000
_C65: interest_teb_marifetli_hesap_10 - 3300000 range_teb_marifetli_hesap_10
 <= 0
_C66: - deposit_teb_marifetli_hesap_10 + interest_teb_marifetli_hesap_10
 - 3500000 range_teb_marifetli_hesap_10 >= -3700000
_C7: deposit_teb_marifetli_hesap_1 - 5000 range_teb_marifetli_hesap_1 >= 0
_C8: deposit_teb_marifetli_hesap_1 - 49999 range_teb_marifetli_hesap_1 <= 0
_C9: deposit_teb_marifetli_hesap_1 - 5000 range_teb_marifetli_hesap_1 >= 0
Bounds
 deposit_teb_marifetli_hesap_0 <= 2000
 deposit_teb_marifetli_hesap_1 <= 49999
 deposit_teb_marifetli_hesap_10 <= 3500000
 deposit_teb_marifetli_hesap_2 <= 99999
 deposit_teb_marifetli_hesap_3 <= 249999
 deposit_teb_marifetli_hesap_4 <= 499999
 deposit_teb_marifetli_hesap_5 <= 749999
 deposit_teb_marifetli_hesap_6 <= 999999
 deposit_teb_marifetli_hesap_7 <= 1500000
 deposit_teb_marifetli_hesap_8 <= 2000000
 deposit_teb_marifetli_hesap_9 <= 3000000
Binaries
range_teb_marifetli_hesap_0
range_teb_marifetli_hesap_1
range_teb_marifetli_hesap_10
range_teb_marifetli_hesap_2
range_teb_marifetli_hesap_3
range_teb_marifetli_hesap_4
range_teb_marifetli_hesap_5
range_teb_marifetli_hesap_6
range_teb_marifetli_hesap_7
range_teb_marifetli_hesap_8
range_teb_marifetli_hesap_9
End
